  7	63
 22
  0	  7	 53	 14	116	  4	 33	 70	 96	 47	 67	 28	 77	 34	110	 91	 37	 97	 16	 79	100	127	
 20
  0	  5	 10	 68	 17	  3	 73	 15	 66	 23	 80	 86	 39	102	 49	 78	 29	112	 92	127	
 22
  0	 20	 44	 42	105	107	 83	 35	 54	 98	117	 12	 75	 38	 36	 24	101	 99	 31	 87	 94	127	
 18
  0	 11	 13	 41	 32	 76	 61	104	 95	 74	124	 58	 22	 18	121	 81	 85	127	
 14
  0	  2	 26	 65	 27	 40	 90	103	 89	  9	 62	 72	125	127	
 22
  0	 30	 21	  6	 56	 63	 84	 50	 19	 69	 46	 82	119	 45	126	 93	113	 43	108	109	106	127	
 22
  0	 52	 55	118	 60	 48	123	115	111	 25	  8	 59	 71	 88	  1	 51	122	 57	 64	120	114	127	
